p edge 25 120
e 1 6
e 1 7
e 1 14
e 1 15
e 1 17
e 1 18
e 1 20
e 1 21
e 2 3
e 2 4
e 2 5
e 2 6
e 2 8
e 2 12
e 2 18
e 2 19
e 2 22
e 2 23
e 3 6
e 3 11
e 3 17
e 3 19
e 3 23
e 4 5
e 4 13
e 4 15
e 4 17
e 4 18
e 4 19
e 4 25
e 5 7
e 5 8
e 5 10
e 5 15
e 5 16
e 5 17
e 5 18
e 5 23
e 5 25
e 6 8
e 6 9
e 6 11
e 6 14
e 6 19
e 6 23
e 6 25
e 7 11
e 7 13
e 7 15
e 7 20
e 7 21
e 7 24
e 7 25
e 8 10
e 8 16
e 8 18
e 8 24
e 9 11
e 9 12
e 9 15
e 9 16
e 9 17
e 9 19
e 9 21
e 9 22
e 9 23
e 9 24
e 9 25
e 10 11
e 10 14
e 10 19
e 10 20
e 10 23
e 10 24
e 11 12
e 11 13
e 11 14
e 11 17
e 11 18
e 11 20
e 11 22
e 11 25
e 12 14
e 12 15
e 12 17
e 12 18
e 12 19
e 12 20
e 12 21
e 12 22
e 12 24
e 12 25
e 13 14
e 13 20
e 13 24
e 14 18
e 14 20
e 15 16
e 15 17
e 15 18
e 15 19
e 15 20
e 15 21
e 15 22
e 15 25
e 16 19
e 16 21
e 16 22
e 17 20
e 17 23
e 17 25
e 18 20
e 18 23
e 18 24
e 18 25
e 20 22
e 20 23
e 20 24
e 22 24
e 23 24
